c 61_4_checker_5cl.cnf
c
c field = 61
c formula set type = 4_checker_5cl
c
p cnf 5 6
122 
124 
126 
128 
-130 
123 
125 
127 
129 
-131 
0 
30 
60 
90 
-150 
1 
31 
61 
91 
-151 
152 
184 
216 
248 
-280 
153 
185 
217 
249 
-281 
